BAYES
241
2 2 2 2 2 2 2 2 2 2 2 2 2 2 2 2 2 3 3 3 3 2 3 3 2 2 2 2 2 2 2 2 2 2 2 2 2 2 2 2 2 2 2 2 2 2 2 2 2 2 2 2 2 2 2 2 2 2 2 2 2 2 2 2 2 2 2 2 2 2 2 2 2 2 2 3 3 3 3 2 3 3 2 2 2 2 2 2 2 2 2 2 2 2 2 2 2 2 2 2 2 2 2 2 2 2 2 2 2 2 2 2 2 2 2 2 2 2 2 2 2 2 2 2 2 2 2 2 2 2 2 2 2 3 3 3 3 2 3 3 2 2 2 2 2 2 2 2 2 2 2 2 2 2 2 2 2 2 2 2 2 2 2 2 2 2 2 2 2 2 2 2 2 2 2 2 2 2 2 2 2 2 2 2 2 2 2 2 2 2 2 3 3 3 3 2 3 3 2 2 2 2 2 2 2 2 2 2 2 2 2 2 2 2 2 2 2 2 2 2 2 2 2 2 2 2 2 2 2 2 2 2 2 2 2 2 2 2 2 2 2 
241
1	0
1	1
1	2
1	3
1	4
1	5
1	6
1	7
1	8
1	9
1	10
1	11
1	12
1	13
1	14
1	15
1	16
5	4	14	15	8	17
5	5	14	16	9	18
5	6	14	15	10	19
4	0	13	15	20
3	2	12	21
4	1	12	16	22
5	7	14	16	11	23
3	3	13	24
3	19	22	25
3	23	20	26
3	17	19	27
3	23	18	28
3	24	21	29
3	20	22	30
3	23	22	31
3	20	19	32
2	17	33
3	21	25	34
2	18	35
3	24	26	36
2	19	37
2	22	38
2	23	39
2	20	40
3	22	21	41
3	17	19	42
3	20	24	43
3	23	18	44
3	28	27	45
3	30	29	46
3	20	19	47
3	21	31	48
3	23	22	49
3	24	32	50
3	1	0	51
3	51	2	52
3	52	3	53
3	53	4	54
3	54	5	55
3	55	6	56
3	7	56	57
4	34	33	8	58
4	36	35	9	59
4	38	37	10	60
4	40	39	11	61
4	42	41	12	62
4	44	43	13	63
4	46	45	14	64
4	48	47	15	65
4	50	49	16	66
1	67
1	68
1	69
1	70
1	71
1	72
1	73
1	74
5	71	64	65	58	75
5	72	64	66	59	76
5	73	64	65	60	77
4	67	63	65	78
3	69	62	79
4	68	62	66	80
5	74	64	66	61	81
3	70	63	82
3	77	80	83
3	81	78	84
3	75	77	85
3	81	76	86
3	82	79	87
3	78	80	88
3	81	80	89
3	78	77	90
2	75	91
3	79	83	92
2	76	93
3	82	84	94
2	77	95
2	80	96
2	81	97
2	78	98
3	80	79	99
3	75	77	100
3	78	82	101
3	81	76	102
3	86	85	103
3	88	87	104
3	78	77	105
3	79	89	106
3	81	80	107
3	82	90	108
3	68	67	109
3	109	69	110
3	110	70	111
3	111	71	112
3	112	72	113
3	113	73	114
3	74	114	115
4	92	91	58	116
4	94	93	59	117
4	96	95	60	118
4	98	97	61	119
4	100	99	62	120
4	102	101	63	121
4	104	103	64	122
4	106	105	65	123
4	108	107	66	124
1	125
1	126
1	127
1	128
1	129
1	130
1	131
1	132
5	129	122	123	116	133
5	130	122	124	117	134
5	131	122	123	118	135
4	125	121	123	136
3	127	120	137
4	126	120	124	138
5	132	122	124	119	139
3	128	121	140
3	135	138	141
3	139	136	142
3	133	135	143
3	139	134	144
3	140	137	145
3	136	138	146
3	139	138	147
3	136	135	148
2	133	149
3	137	141	150
2	134	151
3	140	142	152
2	135	153
2	138	154
2	139	155
2	136	156
3	138	137	157
3	133	135	158
3	136	140	159
3	139	134	160
3	144	143	161
3	146	145	162
3	136	135	163
3	137	147	164
3	139	138	165
3	140	148	166
3	126	125	167
3	167	127	168
3	168	128	169
3	169	129	170
3	170	130	171
3	171	131	172
3	132	172	173
4	150	149	116	174
4	152	151	117	175
4	154	153	118	176
4	156	155	119	177
4	158	157	120	178
4	160	159	121	179
4	162	161	122	180
4	164	163	123	181
4	166	165	124	182
1	183
1	184
1	185
1	186
1	187
1	188
1	189
1	190
5	187	180	181	174	191
5	188	180	182	175	192
5	189	180	181	176	193
4	183	179	181	194
3	185	178	195
4	184	178	182	196
5	190	180	182	177	197
3	186	179	198
3	193	196	199
3	197	194	200
3	191	193	201
3	197	192	202
3	198	195	203
3	194	196	204
3	197	196	205
3	194	193	206
2	191	207
3	195	199	208
2	192	209
3	198	200	210
2	193	211
2	196	212
2	197	213
2	194	214
3	196	195	215
3	191	193	216
3	194	198	217
3	197	192	218
3	202	201	219
3	204	203	220
3	194	193	221
3	195	205	222
3	197	196	223
3	198	206	224
3	184	183	225
3	225	185	226
3	226	186	227
3	227	187	228
3	228	188	229
3	229	189	230
3	190	230	231
4	208	207	174	232
4	210	209	175	233
4	212	211	176	234
4	214	213	177	235
4	216	215	178	236
4	218	217	179	237
4	220	219	180	238
4	222	221	181	239
4	224	223	182	240

2
 1.0 1.0

2
 1.0 1.0

2
 1.0 1.0

2
 1.0 1.0

2
 1.0 1.0

2
 1.0 1.0

2
 1.0 1.0

2
 1.0 1.0

2
 1.0 0.0

2
 0.0 1.0

2
 0.0 1.0

2
 1.0 0.0

2
 1.0 0.0

2
 1.0 0.0

2
 0.0 1.0

2
 0.0 1.0

2
 1.0 0.0

48
 1.0 0.0 0.0
 1.0 0.0 0.0
 1.0 0.0 0.0
 1.0 0.0 0.0
 1.0 0.0 0.0
 1.0 0.0 0.0
 1.0 0.0 0.0
 1.0 0.0 0.0
 1.0 0.0 0.0
 1.0 0.0 0.0
 1.0 0.0 0.0
 1.0 0.0 0.0
 1.0 0.0 0.0
 1.0 0.0 0.0
 1.0 0.0 0.0
 0.0 0.75 0.25

48
 1.0 0.0 0.0
 1.0 0.0 0.0
 1.0 0.0 0.0
 1.0 0.0 0.0
 1.0 0.0 0.0
 1.0 0.0 0.0
 1.0 0.0 0.0
 1.0 0.0 0.0
 1.0 0.0 0.0
 1.0 0.0 0.0
 1.0 0.0 0.0
 1.0 0.0 0.0
 1.0 0.0 0.0
 1.0 0.0 0.0
 1.0 0.0 0.0
 0.0 0.75 0.25

48
 1.0 0.0 0.0
 1.0 0.0 0.0
 1.0 0.0 0.0
 1.0 0.0 0.0
 1.0 0.0 0.0
 1.0 0.0 0.0
 1.0 0.0 0.0
 1.0 0.0 0.0
 1.0 0.0 0.0
 1.0 0.0 0.0
 1.0 0.0 0.0
 1.0 0.0 0.0
 1.0 0.0 0.0
 1.0 0.0 0.0
 1.0 0.0 0.0
 0.0 0.75 0.25

24
 1.0 0.0 0.0
 1.0 0.0 0.0
 1.0 0.0 0.0
 1.0 0.0 0.0
 1.0 0.0 0.0
 1.0 0.0 0.0
 1.0 0.0 0.0
 0.0 0.75 0.25

8
 1.0 0.0
 1.0 0.0
 1.0 0.0
 0.0 1.0

24
 1.0 0.0 0.0
 1.0 0.0 0.0
 1.0 0.0 0.0
 1.0 0.0 0.0
 1.0 0.0 0.0
 1.0 0.0 0.0
 1.0 0.0 0.0
 0.0 0.75 0.25

48
 1.0 0.0 0.0
 1.0 0.0 0.0
 1.0 0.0 0.0
 1.0 0.0 0.0
 1.0 0.0 0.0
 1.0 0.0 0.0
 1.0 0.0 0.0
 1.0 0.0 0.0
 1.0 0.0 0.0
 1.0 0.0 0.0
 1.0 0.0 0.0
 1.0 0.0 0.0
 1.0 0.0 0.0
 1.0 0.0 0.0
 1.0 0.0 0.0
 0.0 0.75 0.25

8
 1.0 0.0
 1.0 0.0
 1.0 0.0
 0.0 1.0

18
 1.0 0.0
 1.0 0.0
 0.0 1.0
 1.0 0.0
 1.0 0.0
 0.0 1.0
 0.0 1.0
 0.0 1.0
 0.0 0.0

18
 1.0 0.0
 1.0 0.0
 0.0 1.0
 1.0 0.0
 1.0 0.0
 0.0 1.0
 0.0 1.0
 0.0 1.0
 0.0 0.0

18
 1.0 0.0
 0.0 1.0
 1.0 0.0
 0.0 1.0
 0.0 0.0
 0.0 1.0
 1.0 0.0
 0.0 1.0
 1.0 0.0

18
 1.0 0.0
 0.0 1.0
 1.0 0.0
 0.0 1.0
 0.0 0.0
 0.0 1.0
 1.0 0.0
 0.0 1.0
 1.0 0.0

8
 1.0 0.0
 0.0 1.0
 0.0 1.0
 0.0 0.0

18
 1.0 0.0
 0.0 1.0
 0.0 1.0
 0.0 1.0
 0.0 0.0
 0.0 0.0
 0.0 1.0
 0.0 0.0
 0.0 0.0

18
 1.0 0.0
 0.0 1.0
 0.0 1.0
 0.0 1.0
 0.0 0.0
 0.0 0.0
 0.0 1.0
 0.0 0.0
 0.0 0.0

18
 1.0 0.0
 0.0 1.0
 0.0 1.0
 0.0 1.0
 0.0 0.0
 0.0 0.0
 0.0 1.0
 0.0 0.0
 0.0 0.0

6
 1.0 0.0
 0.0 1.0
 1.0 0.0

8
 1.0 0.0
 0.0 1.0
 0.0 1.0
 0.0 0.0

6
 1.0 0.0
 0.0 1.0
 1.0 0.0

8
 1.0 0.0
 0.0 1.0
 0.0 1.0
 0.0 0.0

6
 1.0 0.0
 0.0 1.0
 0.0 1.0

6
 1.0 0.0
 0.0 1.0
 1.0 0.0

6
 1.0 0.0
 0.0 1.0
 0.0 1.0

6
 1.0 0.0
 0.0 1.0
 1.0 0.0

12
 1.0 0.0
 0.0 1.0
 0.0 1.0
 0.0 0.0
 0.0 1.0
 0.0 0.0

18
 1.0 0.0
 0.0 1.0
 1.0 0.0
 0.0 1.0
 0.0 0.0
 0.0 1.0
 1.0 0.0
 0.0 1.0
 1.0 0.0

12
 1.0 0.0
 0.0 1.0
 0.0 1.0
 0.0 0.0
 0.0 1.0
 0.0 0.0

18
 1.0 0.0
 0.0 1.0
 1.0 0.0
 0.0 1.0
 0.0 0.0
 0.0 1.0
 1.0 0.0
 0.0 1.0
 1.0 0.0

8
 1.0 0.0
 0.0 1.0
 0.0 1.0
 0.0 0.0

8
 1.0 0.0
 0.0 1.0
 0.0 1.0
 0.0 0.0

18
 1.0 0.0
 0.0 1.0
 1.0 0.0
 0.0 1.0
 0.0 0.0
 0.0 1.0
 1.0 0.0
 0.0 1.0
 1.0 0.0

8
 1.0 0.0
 0.0 1.0
 0.0 1.0
 0.0 0.0

18
 1.0 0.0
 0.0 1.0
 1.0 0.0
 0.0 1.0
 0.0 0.0
 0.0 1.0
 1.0 0.0
 0.0 1.0
 1.0 0.0

8
 1.0 0.0
 0.0 1.0
 0.0 1.0
 0.0 0.0

8
 1.0 0.0
 0.0 1.0
 0.0 1.0
 0.0 0.0

8
 1.0 0.0
 0.0 1.0
 0.0 1.0
 0.0 0.0

8
 1.0 0.0
 0.0 1.0
 0.0 1.0
 0.0 0.0

8
 1.0 0.0
 0.0 1.0
 0.0 1.0
 0.0 0.0

8
 1.0 0.0
 0.0 1.0
 0.0 1.0
 0.0 0.0

8
 1.0 0.0
 0.0 1.0
 0.0 1.0
 0.0 0.0

8
 0.0 0.0
 0.0 1.0
 0.0 1.0
 0.0 0.0

16
 1.0 0.0
 0.0 1.0
 1.0 0.0
 1.0 0.0
 0.0 1.0
 0.0 1.0
 0.0 0.0
 0.0 0.0

16
 1.0 0.0
 0.0 1.0
 1.0 0.0
 1.0 0.0
 0.0 1.0
 0.0 1.0
 0.0 0.0
 0.0 0.0

16
 1.0 0.0
 0.0 1.0
 1.0 0.0
 1.0 0.0
 0.0 1.0
 0.0 1.0
 0.0 0.0
 0.0 0.0

16
 1.0 0.0
 0.0 1.0
 1.0 0.0
 1.0 0.0
 0.0 1.0
 0.0 1.0
 0.0 0.0
 0.0 0.0

16
 1.0 0.0
 0.0 1.0
 1.0 0.0
 1.0 0.0
 0.0 1.0
 0.0 1.0
 0.0 0.0
 0.0 0.0

16
 1.0 0.0
 0.0 1.0
 1.0 0.0
 1.0 0.0
 0.0 1.0
 0.0 1.0
 0.0 0.0
 0.0 0.0

16
 1.0 0.0
 0.0 1.0
 1.0 0.0
 1.0 0.0
 0.0 1.0
 0.0 1.0
 0.0 0.0
 0.0 0.0

16
 1.0 0.0
 0.0 1.0
 1.0 0.0
 1.0 0.0
 0.0 1.0
 0.0 1.0
 0.0 0.0
 0.0 0.0

16
 1.0 0.0
 0.0 1.0
 1.0 0.0
 1.0 0.0
 0.0 1.0
 0.0 1.0
 0.0 0.0
 0.0 0.0

2
 1.0 1.0

2
 1.0 1.0

2
 1.0 1.0

2
 1.0 1.0

2
 1.0 1.0

2
 1.0 1.0

2
 1.0 1.0

2
 1.0 1.0

48
 1.0 0.0 0.0
 1.0 0.0 0.0
 1.0 0.0 0.0
 1.0 0.0 0.0
 1.0 0.0 0.0
 1.0 0.0 0.0
 1.0 0.0 0.0
 1.0 0.0 0.0
 1.0 0.0 0.0
 1.0 0.0 0.0
 1.0 0.0 0.0
 1.0 0.0 0.0
 1.0 0.0 0.0
 1.0 0.0 0.0
 1.0 0.0 0.0
 0.0 0.75 0.25

48
 1.0 0.0 0.0
 1.0 0.0 0.0
 1.0 0.0 0.0
 1.0 0.0 0.0
 1.0 0.0 0.0
 1.0 0.0 0.0
 1.0 0.0 0.0
 1.0 0.0 0.0
 1.0 0.0 0.0
 1.0 0.0 0.0
 1.0 0.0 0.0
 1.0 0.0 0.0
 1.0 0.0 0.0
 1.0 0.0 0.0
 1.0 0.0 0.0
 0.0 0.75 0.25

48
 1.0 0.0 0.0
 1.0 0.0 0.0
 1.0 0.0 0.0
 1.0 0.0 0.0
 1.0 0.0 0.0
 1.0 0.0 0.0
 1.0 0.0 0.0
 1.0 0.0 0.0
 1.0 0.0 0.0
 1.0 0.0 0.0
 1.0 0.0 0.0
 1.0 0.0 0.0
 1.0 0.0 0.0
 1.0 0.0 0.0
 1.0 0.0 0.0
 0.0 0.75 0.25

24
 1.0 0.0 0.0
 1.0 0.0 0.0
 1.0 0.0 0.0
 1.0 0.0 0.0
 1.0 0.0 0.0
 1.0 0.0 0.0
 1.0 0.0 0.0
 0.0 0.75 0.25

8
 1.0 0.0
 1.0 0.0
 1.0 0.0
 0.0 1.0

24
 1.0 0.0 0.0
 1.0 0.0 0.0
 1.0 0.0 0.0
 1.0 0.0 0.0
 1.0 0.0 0.0
 1.0 0.0 0.0
 1.0 0.0 0.0
 0.0 0.75 0.25

48
 1.0 0.0 0.0
 1.0 0.0 0.0
 1.0 0.0 0.0
 1.0 0.0 0.0
 1.0 0.0 0.0
 1.0 0.0 0.0
 1.0 0.0 0.0
 1.0 0.0 0.0
 1.0 0.0 0.0
 1.0 0.0 0.0
 1.0 0.0 0.0
 1.0 0.0 0.0
 1.0 0.0 0.0
 1.0 0.0 0.0
 1.0 0.0 0.0
 0.0 0.75 0.25

8
 1.0 0.0
 1.0 0.0
 1.0 0.0
 0.0 1.0

18
 1.0 0.0
 1.0 0.0
 0.0 1.0
 1.0 0.0
 1.0 0.0
 0.0 1.0
 0.0 1.0
 0.0 1.0
 0.0 0.0

18
 1.0 0.0
 1.0 0.0
 0.0 1.0
 1.0 0.0
 1.0 0.0
 0.0 1.0
 0.0 1.0
 0.0 1.0
 0.0 0.0

18
 1.0 0.0
 0.0 1.0
 1.0 0.0
 0.0 1.0
 0.0 0.0
 0.0 1.0
 1.0 0.0
 0.0 1.0
 1.0 0.0

18
 1.0 0.0
 0.0 1.0
 1.0 0.0
 0.0 1.0
 0.0 0.0
 0.0 1.0
 1.0 0.0
 0.0 1.0
 1.0 0.0

8
 1.0 0.0
 0.0 1.0
 0.0 1.0
 0.0 0.0

18
 1.0 0.0
 0.0 1.0
 0.0 1.0
 0.0 1.0
 0.0 0.0
 0.0 0.0
 0.0 1.0
 0.0 0.0
 0.0 0.0

18
 1.0 0.0
 0.0 1.0
 0.0 1.0
 0.0 1.0
 0.0 0.0
 0.0 0.0
 0.0 1.0
 0.0 0.0
 0.0 0.0

18
 1.0 0.0
 0.0 1.0
 0.0 1.0
 0.0 1.0
 0.0 0.0
 0.0 0.0
 0.0 1.0
 0.0 0.0
 0.0 0.0

6
 1.0 0.0
 0.0 1.0
 1.0 0.0

8
 1.0 0.0
 0.0 1.0
 0.0 1.0
 0.0 0.0

6
 1.0 0.0
 0.0 1.0
 1.0 0.0

8
 1.0 0.0
 0.0 1.0
 0.0 1.0
 0.0 0.0

6
 1.0 0.0
 0.0 1.0
 0.0 1.0

6
 1.0 0.0
 0.0 1.0
 1.0 0.0

6
 1.0 0.0
 0.0 1.0
 0.0 1.0

6
 1.0 0.0
 0.0 1.0
 1.0 0.0

12
 1.0 0.0
 0.0 1.0
 0.0 1.0
 0.0 0.0
 0.0 1.0
 0.0 0.0

18
 1.0 0.0
 0.0 1.0
 1.0 0.0
 0.0 1.0
 0.0 0.0
 0.0 1.0
 1.0 0.0
 0.0 1.0
 1.0 0.0

12
 1.0 0.0
 0.0 1.0
 0.0 1.0
 0.0 0.0
 0.0 1.0
 0.0 0.0

18
 1.0 0.0
 0.0 1.0
 1.0 0.0
 0.0 1.0
 0.0 0.0
 0.0 1.0
 1.0 0.0
 0.0 1.0
 1.0 0.0

8
 1.0 0.0
 0.0 1.0
 0.0 1.0
 0.0 0.0

8
 1.0 0.0
 0.0 1.0
 0.0 1.0
 0.0 0.0

18
 1.0 0.0
 0.0 1.0
 1.0 0.0
 0.0 1.0
 0.0 0.0
 0.0 1.0
 1.0 0.0
 0.0 1.0
 1.0 0.0

8
 1.0 0.0
 0.0 1.0
 0.0 1.0
 0.0 0.0

18
 1.0 0.0
 0.0 1.0
 1.0 0.0
 0.0 1.0
 0.0 0.0
 0.0 1.0
 1.0 0.0
 0.0 1.0
 1.0 0.0

8
 1.0 0.0
 0.0 1.0
 0.0 1.0
 0.0 0.0

8
 1.0 0.0
 0.0 1.0
 0.0 1.0
 0.0 0.0

8
 1.0 0.0
 0.0 1.0
 0.0 1.0
 0.0 0.0

8
 1.0 0.0
 0.0 1.0
 0.0 1.0
 0.0 0.0

8
 1.0 0.0
 0.0 1.0
 0.0 1.0
 0.0 0.0

8
 1.0 0.0
 0.0 1.0
 0.0 1.0
 0.0 0.0

8
 1.0 0.0
 0.0 1.0
 0.0 1.0
 0.0 0.0

8
 0.0 0.0
 0.0 1.0
 0.0 1.0
 0.0 0.0

16
 1.0 0.0
 0.0 1.0
 1.0 0.0
 1.0 0.0
 0.0 1.0
 0.0 1.0
 0.0 0.0
 0.0 0.0

16
 1.0 0.0
 0.0 1.0
 1.0 0.0
 1.0 0.0
 0.0 1.0
 0.0 1.0
 0.0 0.0
 0.0 0.0

16
 1.0 0.0
 0.0 1.0
 1.0 0.0
 1.0 0.0
 0.0 1.0
 0.0 1.0
 0.0 0.0
 0.0 0.0

16
 1.0 0.0
 0.0 1.0
 1.0 0.0
 1.0 0.0
 0.0 1.0
 0.0 1.0
 0.0 0.0
 0.0 0.0

16
 1.0 0.0
 0.0 1.0
 1.0 0.0
 1.0 0.0
 0.0 1.0
 0.0 1.0
 0.0 0.0
 0.0 0.0

16
 1.0 0.0
 0.0 1.0
 1.0 0.0
 1.0 0.0
 0.0 1.0
 0.0 1.0
 0.0 0.0
 0.0 0.0

16
 1.0 0.0
 0.0 1.0
 1.0 0.0
 1.0 0.0
 0.0 1.0
 0.0 1.0
 0.0 0.0
 0.0 0.0

16
 1.0 0.0
 0.0 1.0
 1.0 0.0
 1.0 0.0
 0.0 1.0
 0.0 1.0
 0.0 0.0
 0.0 0.0

16
 1.0 0.0
 0.0 1.0
 1.0 0.0
 1.0 0.0
 0.0 1.0
 0.0 1.0
 0.0 0.0
 0.0 0.0

2
 1.0 1.0

2
 1.0 1.0

2
 1.0 1.0

2
 1.0 1.0

2
 1.0 1.0

2
 1.0 1.0

2
 1.0 1.0

2
 1.0 1.0

48
 1.0 0.0 0.0
 1.0 0.0 0.0
 1.0 0.0 0.0
 1.0 0.0 0.0
 1.0 0.0 0.0
 1.0 0.0 0.0
 1.0 0.0 0.0
 1.0 0.0 0.0
 1.0 0.0 0.0
 1.0 0.0 0.0
 1.0 0.0 0.0
 1.0 0.0 0.0
 1.0 0.0 0.0
 1.0 0.0 0.0
 1.0 0.0 0.0
 0.0 0.75 0.25

48
 1.0 0.0 0.0
 1.0 0.0 0.0
 1.0 0.0 0.0
 1.0 0.0 0.0
 1.0 0.0 0.0
 1.0 0.0 0.0
 1.0 0.0 0.0
 1.0 0.0 0.0
 1.0 0.0 0.0
 1.0 0.0 0.0
 1.0 0.0 0.0
 1.0 0.0 0.0
 1.0 0.0 0.0
 1.0 0.0 0.0
 1.0 0.0 0.0
 0.0 0.75 0.25

48
 1.0 0.0 0.0
 1.0 0.0 0.0
 1.0 0.0 0.0
 1.0 0.0 0.0
 1.0 0.0 0.0
 1.0 0.0 0.0
 1.0 0.0 0.0
 1.0 0.0 0.0
 1.0 0.0 0.0
 1.0 0.0 0.0
 1.0 0.0 0.0
 1.0 0.0 0.0
 1.0 0.0 0.0
 1.0 0.0 0.0
 1.0 0.0 0.0
 0.0 0.75 0.25

24
 1.0 0.0 0.0
 1.0 0.0 0.0
 1.0 0.0 0.0
 1.0 0.0 0.0
 1.0 0.0 0.0
 1.0 0.0 0.0
 1.0 0.0 0.0
 0.0 0.75 0.25

8
 1.0 0.0
 1.0 0.0
 1.0 0.0
 0.0 1.0

24
 1.0 0.0 0.0
 1.0 0.0 0.0
 1.0 0.0 0.0
 1.0 0.0 0.0
 1.0 0.0 0.0
 1.0 0.0 0.0
 1.0 0.0 0.0
 0.0 0.75 0.25

48
 1.0 0.0 0.0
 1.0 0.0 0.0
 1.0 0.0 0.0
 1.0 0.0 0.0
 1.0 0.0 0.0
 1.0 0.0 0.0
 1.0 0.0 0.0
 1.0 0.0 0.0
 1.0 0.0 0.0
 1.0 0.0 0.0
 1.0 0.0 0.0
 1.0 0.0 0.0
 1.0 0.0 0.0
 1.0 0.0 0.0
 1.0 0.0 0.0
 0.0 0.75 0.25

8
 1.0 0.0
 1.0 0.0
 1.0 0.0
 0.0 1.0

18
 1.0 0.0
 1.0 0.0
 0.0 1.0
 1.0 0.0
 1.0 0.0
 0.0 1.0
 0.0 1.0
 0.0 1.0
 0.0 0.0

18
 1.0 0.0
 1.0 0.0
 0.0 1.0
 1.0 0.0
 1.0 0.0
 0.0 1.0
 0.0 1.0
 0.0 1.0
 0.0 0.0

18
 1.0 0.0
 0.0 1.0
 1.0 0.0
 0.0 1.0
 0.0 0.0
 0.0 1.0
 1.0 0.0
 0.0 1.0
 1.0 0.0

18
 1.0 0.0
 0.0 1.0
 1.0 0.0
 0.0 1.0
 0.0 0.0
 0.0 1.0
 1.0 0.0
 0.0 1.0
 1.0 0.0

8
 1.0 0.0
 0.0 1.0
 0.0 1.0
 0.0 0.0

18
 1.0 0.0
 0.0 1.0
 0.0 1.0
 0.0 1.0
 0.0 0.0
 0.0 0.0
 0.0 1.0
 0.0 0.0
 0.0 0.0

18
 1.0 0.0
 0.0 1.0
 0.0 1.0
 0.0 1.0
 0.0 0.0
 0.0 0.0
 0.0 1.0
 0.0 0.0
 0.0 0.0

18
 1.0 0.0
 0.0 1.0
 0.0 1.0
 0.0 1.0
 0.0 0.0
 0.0 0.0
 0.0 1.0
 0.0 0.0
 0.0 0.0

6
 1.0 0.0
 0.0 1.0
 1.0 0.0

8
 1.0 0.0
 0.0 1.0
 0.0 1.0
 0.0 0.0

6
 1.0 0.0
 0.0 1.0
 1.0 0.0

8
 1.0 0.0
 0.0 1.0
 0.0 1.0
 0.0 0.0

6
 1.0 0.0
 0.0 1.0
 0.0 1.0

6
 1.0 0.0
 0.0 1.0
 1.0 0.0

6
 1.0 0.0
 0.0 1.0
 0.0 1.0

6
 1.0 0.0
 0.0 1.0
 1.0 0.0

12
 1.0 0.0
 0.0 1.0
 0.0 1.0
 0.0 0.0
 0.0 1.0
 0.0 0.0

18
 1.0 0.0
 0.0 1.0
 1.0 0.0
 0.0 1.0
 0.0 0.0
 0.0 1.0
 1.0 0.0
 0.0 1.0
 1.0 0.0

12
 1.0 0.0
 0.0 1.0
 0.0 1.0
 0.0 0.0
 0.0 1.0
 0.0 0.0

18
 1.0 0.0
 0.0 1.0
 1.0 0.0
 0.0 1.0
 0.0 0.0
 0.0 1.0
 1.0 0.0
 0.0 1.0
 1.0 0.0

8
 1.0 0.0
 0.0 1.0
 0.0 1.0
 0.0 0.0

8
 1.0 0.0
 0.0 1.0
 0.0 1.0
 0.0 0.0

18
 1.0 0.0
 0.0 1.0
 1.0 0.0
 0.0 1.0
 0.0 0.0
 0.0 1.0
 1.0 0.0
 0.0 1.0
 1.0 0.0

8
 1.0 0.0
 0.0 1.0
 0.0 1.0
 0.0 0.0

18
 1.0 0.0
 0.0 1.0
 1.0 0.0
 0.0 1.0
 0.0 0.0
 0.0 1.0
 1.0 0.0
 0.0 1.0
 1.0 0.0

8
 1.0 0.0
 0.0 1.0
 0.0 1.0
 0.0 0.0

8
 1.0 0.0
 0.0 1.0
 0.0 1.0
 0.0 0.0

8
 1.0 0.0
 0.0 1.0
 0.0 1.0
 0.0 0.0

8
 1.0 0.0
 0.0 1.0
 0.0 1.0
 0.0 0.0

8
 1.0 0.0
 0.0 1.0
 0.0 1.0
 0.0 0.0

8
 1.0 0.0
 0.0 1.0
 0.0 1.0
 0.0 0.0

8
 1.0 0.0
 0.0 1.0
 0.0 1.0
 0.0 0.0

8
 0.0 0.0
 0.0 1.0
 0.0 1.0
 0.0 0.0

16
 1.0 0.0
 0.0 1.0
 1.0 0.0
 1.0 0.0
 0.0 1.0
 0.0 1.0
 0.0 0.0
 0.0 0.0

16
 1.0 0.0
 0.0 1.0
 1.0 0.0
 1.0 0.0
 0.0 1.0
 0.0 1.0
 0.0 0.0
 0.0 0.0

16
 1.0 0.0
 0.0 1.0
 1.0 0.0
 1.0 0.0
 0.0 1.0
 0.0 1.0
 0.0 0.0
 0.0 0.0

16
 1.0 0.0
 0.0 1.0
 1.0 0.0
 1.0 0.0
 0.0 1.0
 0.0 1.0
 0.0 0.0
 0.0 0.0

16
 1.0 0.0
 0.0 1.0
 1.0 0.0
 1.0 0.0
 0.0 1.0
 0.0 1.0
 0.0 0.0
 0.0 0.0

16
 1.0 0.0
 0.0 1.0
 1.0 0.0
 1.0 0.0
 0.0 1.0
 0.0 1.0
 0.0 0.0
 0.0 0.0

16
 1.0 0.0
 0.0 1.0
 1.0 0.0
 1.0 0.0
 0.0 1.0
 0.0 1.0
 0.0 0.0
 0.0 0.0

16
 1.0 0.0
 0.0 1.0
 1.0 0.0
 1.0 0.0
 0.0 1.0
 0.0 1.0
 0.0 0.0
 0.0 0.0

16
 1.0 0.0
 0.0 1.0
 1.0 0.0
 1.0 0.0
 0.0 1.0
 0.0 1.0
 0.0 0.0
 0.0 0.0

2
 1.0 1.0

2
 1.0 1.0

2
 1.0 1.0

2
 1.0 1.0

2
 1.0 1.0

2
 1.0 1.0

2
 1.0 1.0

2
 1.0 1.0

48
 1.0 0.0 0.0
 1.0 0.0 0.0
 1.0 0.0 0.0
 1.0 0.0 0.0
 1.0 0.0 0.0
 1.0 0.0 0.0
 1.0 0.0 0.0
 1.0 0.0 0.0
 1.0 0.0 0.0
 1.0 0.0 0.0
 1.0 0.0 0.0
 1.0 0.0 0.0
 1.0 0.0 0.0
 1.0 0.0 0.0
 1.0 0.0 0.0
 0.0 0.75 0.25

48
 1.0 0.0 0.0
 1.0 0.0 0.0
 1.0 0.0 0.0
 1.0 0.0 0.0
 1.0 0.0 0.0
 1.0 0.0 0.0
 1.0 0.0 0.0
 1.0 0.0 0.0
 1.0 0.0 0.0
 1.0 0.0 0.0
 1.0 0.0 0.0
 1.0 0.0 0.0
 1.0 0.0 0.0
 1.0 0.0 0.0
 1.0 0.0 0.0
 0.0 0.75 0.25

48
 1.0 0.0 0.0
 1.0 0.0 0.0
 1.0 0.0 0.0
 1.0 0.0 0.0
 1.0 0.0 0.0
 1.0 0.0 0.0
 1.0 0.0 0.0
 1.0 0.0 0.0
 1.0 0.0 0.0
 1.0 0.0 0.0
 1.0 0.0 0.0
 1.0 0.0 0.0
 1.0 0.0 0.0
 1.0 0.0 0.0
 1.0 0.0 0.0
 0.0 0.75 0.25

24
 1.0 0.0 0.0
 1.0 0.0 0.0
 1.0 0.0 0.0
 1.0 0.0 0.0
 1.0 0.0 0.0
 1.0 0.0 0.0
 1.0 0.0 0.0
 0.0 0.75 0.25

8
 1.0 0.0
 1.0 0.0
 1.0 0.0
 0.0 1.0

24
 1.0 0.0 0.0
 1.0 0.0 0.0
 1.0 0.0 0.0
 1.0 0.0 0.0
 1.0 0.0 0.0
 1.0 0.0 0.0
 1.0 0.0 0.0
 0.0 0.75 0.25

48
 1.0 0.0 0.0
 1.0 0.0 0.0
 1.0 0.0 0.0
 1.0 0.0 0.0
 1.0 0.0 0.0
 1.0 0.0 0.0
 1.0 0.0 0.0
 1.0 0.0 0.0
 1.0 0.0 0.0
 1.0 0.0 0.0
 1.0 0.0 0.0
 1.0 0.0 0.0
 1.0 0.0 0.0
 1.0 0.0 0.0
 1.0 0.0 0.0
 0.0 0.75 0.25

8
 1.0 0.0
 1.0 0.0
 1.0 0.0
 0.0 1.0

18
 1.0 0.0
 1.0 0.0
 0.0 1.0
 1.0 0.0
 1.0 0.0
 0.0 1.0
 0.0 1.0
 0.0 1.0
 0.0 0.0

18
 1.0 0.0
 1.0 0.0
 0.0 1.0
 1.0 0.0
 1.0 0.0
 0.0 1.0
 0.0 1.0
 0.0 1.0
 0.0 0.0

18
 1.0 0.0
 0.0 1.0
 1.0 0.0
 0.0 1.0
 0.0 0.0
 0.0 1.0
 1.0 0.0
 0.0 1.0
 1.0 0.0

18
 1.0 0.0
 0.0 1.0
 1.0 0.0
 0.0 1.0
 0.0 0.0
 0.0 1.0
 1.0 0.0
 0.0 1.0
 1.0 0.0

8
 1.0 0.0
 0.0 1.0
 0.0 1.0
 0.0 0.0

18
 1.0 0.0
 0.0 1.0
 0.0 1.0
 0.0 1.0
 0.0 0.0
 0.0 0.0
 0.0 1.0
 0.0 0.0
 0.0 0.0

18
 1.0 0.0
 0.0 1.0
 0.0 1.0
 0.0 1.0
 0.0 0.0
 0.0 0.0
 0.0 1.0
 0.0 0.0
 0.0 0.0

18
 1.0 0.0
 0.0 1.0
 0.0 1.0
 0.0 1.0
 0.0 0.0
 0.0 0.0
 0.0 1.0
 0.0 0.0
 0.0 0.0

6
 1.0 0.0
 0.0 1.0
 1.0 0.0

8
 1.0 0.0
 0.0 1.0
 0.0 1.0
 0.0 0.0

6
 1.0 0.0
 0.0 1.0
 1.0 0.0

8
 1.0 0.0
 0.0 1.0
 0.0 1.0
 0.0 0.0

6
 1.0 0.0
 0.0 1.0
 0.0 1.0

6
 1.0 0.0
 0.0 1.0
 1.0 0.0

6
 1.0 0.0
 0.0 1.0
 0.0 1.0

6
 1.0 0.0
 0.0 1.0
 1.0 0.0

12
 1.0 0.0
 0.0 1.0
 0.0 1.0
 0.0 0.0
 0.0 1.0
 0.0 0.0

18
 1.0 0.0
 0.0 1.0
 1.0 0.0
 0.0 1.0
 0.0 0.0
 0.0 1.0
 1.0 0.0
 0.0 1.0
 1.0 0.0

12
 1.0 0.0
 0.0 1.0
 0.0 1.0
 0.0 0.0
 0.0 1.0
 0.0 0.0

18
 1.0 0.0
 0.0 1.0
 1.0 0.0
 0.0 1.0
 0.0 0.0
 0.0 1.0
 1.0 0.0
 0.0 1.0
 1.0 0.0

8
 1.0 0.0
 0.0 1.0
 0.0 1.0
 0.0 0.0

8
 1.0 0.0
 0.0 1.0
 0.0 1.0
 0.0 0.0

18
 1.0 0.0
 0.0 1.0
 1.0 0.0
 0.0 1.0
 0.0 0.0
 0.0 1.0
 1.0 0.0
 0.0 1.0
 1.0 0.0

8
 1.0 0.0
 0.0 1.0
 0.0 1.0
 0.0 0.0

18
 1.0 0.0
 0.0 1.0
 1.0 0.0
 0.0 1.0
 0.0 0.0
 0.0 1.0
 1.0 0.0
 0.0 1.0
 1.0 0.0

8
 1.0 0.0
 0.0 1.0
 0.0 1.0
 0.0 0.0

8
 1.0 0.0
 0.0 1.0
 0.0 1.0
 0.0 0.0

8
 1.0 0.0
 0.0 1.0
 0.0 1.0
 0.0 0.0

8
 1.0 0.0
 0.0 1.0
 0.0 1.0
 0.0 0.0

8
 1.0 0.0
 0.0 1.0
 0.0 1.0
 0.0 0.0

8
 1.0 0.0
 0.0 1.0
 0.0 1.0
 0.0 0.0

8
 1.0 0.0
 0.0 1.0
 0.0 1.0
 0.0 0.0

8
 0.0 0.0
 0.0 1.0
 0.0 1.0
 0.0 0.0

16
 0.0 0.0
 0.0 1.0
 0.0 0.0
 0.0 0.0
 0.0 1.0
 0.0 1.0
 0.0 0.0
 0.0 0.0

16
 1.0 0.0
 0.0 1.0
 1.0 0.0
 1.0 0.0
 0.0 1.0
 0.0 1.0
 0.0 0.0
 0.0 0.0

16
 1.0 0.0
 0.0 1.0
 1.0 0.0
 1.0 0.0
 0.0 1.0
 0.0 1.0
 0.0 0.0
 0.0 0.0

16
 0.0 0.0
 0.0 1.0
 0.0 0.0
 0.0 0.0
 0.0 1.0
 0.0 1.0
 0.0 0.0
 0.0 0.0

16
 1.0 0.0
 0.0 1.0
 1.0 0.0
 1.0 0.0
 0.0 1.0
 0.0 1.0
 0.0 0.0
 0.0 0.0

16
 1.0 0.0
 0.0 1.0
 1.0 0.0
 1.0 0.0
 0.0 1.0
 0.0 1.0
 0.0 0.0
 0.0 0.0

16
 0.0 0.0
 0.0 1.0
 0.0 0.0
 0.0 0.0
 0.0 1.0
 0.0 1.0
 0.0 0.0
 0.0 0.0

16
 1.0 0.0
 0.0 1.0
 1.0 0.0
 1.0 0.0
 0.0 1.0
 0.0 1.0
 0.0 0.0
 0.0 0.0

16
 0.0 0.0
 0.0 1.0
 0.0 0.0
 0.0 0.0
 0.0 1.0
 0.0 1.0
 0.0 0.0
 0.0 0.0

